days 4
0000 0001 0008
0009 0008 0002
0000 0001 0005
0000 0001 0003
0002 0004
0000 0006 0003 0007
0002 0004
0002 0004
0000 0001 0008
0002 0004
0000 0001 0005
0002 0004
0000 0001 0008
0002 0004
0000 0006 0003 0007
0000 0001 0005
0000 0001 0008
0009 0008 0002
0009 0008 0002
0000 0001 0008
0009 0008 0002
0002 0004
0000 0006 0003 0007
0000 0001 0005
0009 0008 0002
0009 0008 0002
0009 0008 0002
0002 0004
0002 0004
0009 0008 0002
0000 0006 0003 0007
0009 0008 0002
0009 0008 0002
0000 0001 0003
0009 0008 0002
0000 0001 0003
0009 0008 0002
0000 0006 0003 0007
0000 0006 0003 0007
0000 0001 0005
0000 0001 0003
0009 0008 0002
0000 0001 0005
0000 0006 0003 0007
0000 0001 0005
0002 0004
0009 0008 0002
0002 0004
0000 0006 0003 0007
0000 0001 0005
0000 0001 0008
0000 0006 0003 0007
0002 0004
0000 0006 0003 0007
0009 0008 0002
0000 0001 0008
0000 0001 0008
0009 0008 0002
0000 0001 0005
0000 0001 0005
0000 0001 0008
0000 0001 0008
0002 0004
0009 0008 0002
0000 0001 0008
0009 0008 0002
0000 0001 0008
0000 0001 0005
0000 0006 0003 0007
0000 0006 0003 0007
0000 0001 0003
0000 0001 0003
0000 0001 0003
0009 0008 0002
0000 0001 0003
0002 0004
0000 0001 0005
0009 0008 0002
0009 0008 0002
0000 0001 0005
0002 0004
0000 0006 0003 0007
0000 0006 0003 0007
0000 0006 0003 0007
0002 0004
0000 0001 0005
0000 0001 0005
0000 0001 0005
0000 0001 0003
0000 0006 0003 0007
0002 0004
0000 0001 0003
0000 0001 0003
0000 0001 0003
0000 0001 0008
0009 0008 0002
0000 0001 0003
0002 0004
0002 0004
0000 0006 0003 0007
0000 0001 0003
0000 0006 0003 0007
0000 0001 0005
0000 0006 0003 0007
0002 0004
0000 0001 0003
0000 0001 0008
0002 0004
0002 0004
0009 0008 0002
0002 0004
0009 0008 0002
0000 0001 0005
0009 0008 0002
0000 0001 0005
0002 0004
0009 0008 0002
0009 0008 0002
0000 0006 0003 0007
0000 0006 0003 0007
0000 0001 0005
0000 0001 0008
0000 0001 0008
0002 0004
0000 0001 0003
0002 0004
0000 0001 0003
0002 0004
0002 0004
0000 0001 0008
0000 0006 0003 0007
0009 0008 0002
0009 0008 0002
0000 0001 0008
0000 0001 0003
0000 0001 0008
0000 0006 0003 0007
0000 0006 0003 0007
0002 0004
0000 0006 0003 0007
0000 0006 0003 0007
0009 0008 0002
0002 0004
0000 0001 0008
0000 0001 0005
0000 0001 0008
0000 0001 0005
0000 0006 0003 0007
0009 0008 0002
0002 0004
0009 0008 0002
0009 0008 0002
0000 0001 0005
0009 0008 0002
0000 0001 0005
0009 0008 0002
0000 0006 0003 0007
0000 0001 0008
0000 0001 0008
0000 0001 0003
0002 0004
0002 0004
0000 0006 0003 0007
0002 0004
0000 0006 0003 0007
0000 0001 0008
0009 0008 0002
0000 0001 0003
0000 0001 0005
0000 0001 0003
0002 0004
0002 0004
0000 0001 0008
0009 0008 0002
0000 0001 0003
0000 0001 0005
0009 0008 0002
0000 0001 0005
0000 0001 0003
0002 0004
0000 0001 0005
0002 0004
0000 0001 0003
0000 0006 0003 0007
0009 0008 0002
0009 0008 0002
0002 0004
0009 0008 0002
0000 0006 0003 0007
0000 0001 0003
0000 0001 0008
0000 0001 0003
0000 0001 0008
0009 0008 0002
0009 0008 0002
0002 0004
0000 0001 0003
0000 0001 0003
0000 0001 0008
0000 0001 0008
0000 0001 0003
0000 0001 0003
0000 0001 0003
